NAME          ClpDefau
ROWS
 N  OBJROW
 L  R_120_0
 L  R_120_1
 L  R_120_2
 L  R_120_3
 L  R_120_4
 L  R_120_5
 L  R_120_6
 L  R_120_7
COLUMNS
    x_0       OBJROW     -8.           R_120_0   28.         
    x_0       R_120_1   75.            R_120_2   56.         
    x_0       R_120_3   93.            R_120_5   48.         
    x_0       R_120_6   57.            R_120_7   5.          
    x_1       OBJROW     -12.          R_120_1   41.         
    x_1       R_120_3   68.            R_120_4   23.         
    x_1       R_120_5   4.             R_120_6   23.         
    x_1       R_120_7   66.         
    x_2       OBJROW     -11.          R_120_0   66.         
    x_2       R_120_1   24.            R_120_3   54.         
    x_2       R_120_4   98.            R_120_5   76.         
    x_2       R_120_6   58.            R_120_7   97.         
    x_3       OBJROW     -47.          R_120_0   95.         
    x_3       R_120_1   68.            R_120_2   36.         
    x_3       R_120_4   46.            R_120_5   59.         
    x_3       R_120_7   73.         
    x_4       OBJROW     -22.          R_120_0   72.         
    x_4       R_120_1   63.            R_120_2   42.         
    x_4       R_120_6   99.         
    x_5       OBJROW     -95.          R_120_0   91.         
    x_5       R_120_2   65.            R_120_3   76.         
    x_5       R_120_4   94.            R_120_5   66.         
    x_5       R_120_6   88.            R_120_7   10.         
    x_6       OBJROW     -86.          R_120_0   44.         
    x_6       R_120_1   25.            R_120_3   74.         
    x_6       R_120_4   35.            R_120_5   88.         
    x_6       R_120_7   67.         
    x_7       OBJROW     -40.          R_120_0   35.         
    x_7       R_120_1   27.            R_120_3   92.         
    x_7       R_120_4   8.             R_120_5   23.         
    x_7       R_120_6   4.             R_120_7   9.          
RHS
    RHS       R_120_0   92.            R_120_1   100.        
    RHS       R_120_2   90.            R_120_3   271.        
    RHS       R_120_4   210.           R_120_5   145.        
    RHS       R_120_6   160.           R_120_7   174.        
BOUNDS
 UI BOUND     x_0       100.        
 UI BOUND     x_1       100.        
 UI BOUND     x_2       100.        
 UI BOUND     x_3       100.        
 UI BOUND     x_4       100.        
 UI BOUND     x_5       100.        
 UI BOUND     x_6       100.        
 UI BOUND     x_7       100.        
ENDATA
